132
0 109 128 76 57 118 82 89 37 41 
70 96 38 106 3 7 39 35 15 123 
125 97 1 99 31 44 85 4 65 36 
91 107 126 119 122 62 130 21 81 86 
28 67 49 54 26 29 116 66 79 90 
20 74 83 78 93 71 60 14 47 22 
25 69 87 8 77 12 59 53 127 64 
30 46 32 110 101 114 108 98 117 33 
5 129 102 10 11 48 19 34 113 23 
13 6 61 24 112 75 50 63 92 105 
68 103 95 27 17 94 16 84 104 124 
40 18 43 52 88 42 115 73 131 111 
121 72 45 120 55 51 80 100 56 58 
9 2 
